5457.51
0 28 31 12 25 14 15 18 20 22 13 24 16 11 21 19 17 32 2 8 7 9 1 5 3 6 4 10 0
0 23 26 27 33 30 0
0 29 39 36 34 48 45 41 38 43 40 46 37 35 51 53 54 0
0 65 68 91 49 47 42 44 55 57 61 52 50 56 0
0 66 70 69 67 72 71 75 77 62 60 64 63 59 58 0
0 90 87 81 85 83 84 82 74 79 76 80 73 78 0
0 89 86 88 92 109 120 108 116 124 132 104 105 99 100 101 102 106 95 94 93 98 96 0
0 115 110 118 107 103 97 141 0
0 129 123 111 119 113 117 112 0
0 121 131 114 136 0
0 133 134 127 122 126 128 125 144 0
0 130 139 146 137 149 140 145 135 0
0 138 142 148 150 0
0 143 147 0
